set V := 1 2 3 4 5 6 7;
set E := e1 e2 e3 e4;

set X[e1] := 1;
set X[e2] := 2 3;
set X[e3] := 4 5;
set X[e4] := 5;

set Y[e1] := 2 3;
set Y[e2] := 4;
set Y[e3] := 6 7;
set Y[e4] := 7;

param invertible :=	
e1 1
e2 0
e3 0
e4 1;


option solver cplex;
solve;
display inverted;
display has_in;
display has_out;
display _solve_user_time;